check/instances/MINLP/meanvarx.nl
g3 3 1 0	# problem meanvarx
 31 38 1 0 8	# vars, constraints, objectives, ranges, eqns
 0 1	# nonlinear constraints, objectives
 0 0	# network constraints: nonlinear, linear
 0 7 0	# nonlinear vars in constraints, objectives, both
 0 0 0 1	# linear network variables; functions; arith, flags
 12 0 0 0 0	# discrete variables: binary, integer, nonlinear (b,c,o)
 91 7	# nonzeros in Jacobian, gradients
 3 3	# max name lengths: constraints, variables
 0 0 0 0 0	# common exprs: b,c,o,c1,o1
C0
n0
C1
n0
C2
n0
C3
n0
C4
n0
C5
n0
C6
n0
C7
n0
C8
n0
C9
n0
C10
n0
C11
n0
C12
n0
C13
n0
C14
n0
C15
n0
C16
n0
C17
n0
C18
n0
C19
n0
C20
n0
C21
n0
C22
n0
C23
n0
C24
n0
C25
n0
C26
n0
C27
n0
C28
n0
C29
n0
C30
n0
C31
n0
C32
n0
C33
n0
C34
n0
C35
n0
C36
n0
C37
n0
O0 0
o54
28
o2
o2
n42.18
v0
v0
o2
o2
n40.36
v0
v1
o2
o2
n21.76
v0
v2
o2
o2
n10.6
v0
v3
o2
o2
n24.64
v0
v4
o2
o2
n47.68
v0
v5
o2
o2
n34.82
v0
v6
o2
o2
n70.89
v1
v1
o2
o2
n43.16
v1
v2
o2
o2
n30.82
v1
v3
o2
o2
n46.48
v1
v4
o2
o2
n47.6
v1
v5
o2
o2
n25.24
v1
v6
o2
o2
n25.51
v2
v2
o2
o2
n19.2
v2
v3
o2
o2
n45.26
v2
v4
o2
o2
n26.44
v2
v5
o2
o2
n9.4
v2
v6
o2
o2
n22.33
v3
v3
o2
o2
n20.64
v3
v4
o2
o2
n20.92
v3
v5
o2
o2
n2
v3
v6
o2
o2
n30.01
v4
v4
o2
o2
n32.72
v4
v5
o2
o2
n14.4
v4
v6
o2
o2
n42.23
v5
v5
o2
o2
n19.8
v5
v6
o2
o2
n16.42
v6
v6
r
4 1
4 0.2
4 0.2
4 0
4 0
4 0.2
4 0.2
4 0.2
1 0.3
1 0
1 0
1 0
1 0
1 0
1 0
1 0
2 0
2 0
2 0
2 0
2 0
2 0
2 0
1 0
1 0
1 0
1 0
1 0
2 0
2 0
2 0
2 0
2 0
1 1
1 1
1 1
1 1
1 1
b
2 0
2 0
2 0
2 0
2 0
2 0
2 0
2 0
2 0
2 0
2 0
2 0
2 0
2 0
2 0
2 0
2 0
2 0
2 0
0 0 1
0 0 1
0 0 1
0 0 1
0 0 1
0 0 1
0 0 1
0 0 1
0 0 1
0 0 1
0 0 1
0 0 1
k30
2
4
6
8
10
12
14
18
22
26
30
34
38
42
45
48
51
54
57
60
63
65
67
70
73
76
79
82
85
88
J0 7
0 1
1 1
2 1
3 1
4 1
5 1
6 1
J1 3
0 1
7 -1
14 1
J2 3
1 1
8 -1
15 1
J3 2
2 1
9 -1
J4 2
3 1
10 -1
J5 3
4 1
11 -1
16 1
J6 3
5 1
12 -1
17 1
J7 3
6 1
13 -1
18 1
J8 7
7 1
8 1
9 1
10 1
11 1
12 1
13 1
J9 2
7 1
19 -0.11
J10 2
8 1
20 -0.1
J11 2
9 1
21 -0.07
J12 2
10 1
22 -0.11
J13 2
11 1
23 -0.2
J14 2
12 1
24 -0.1
J15 2
13 1
25 -0.1
J16 2
7 1
19 -0.03
J17 2
8 1
20 -0.04
J18 2
9 1
21 -0.04
J19 2
10 1
22 -0.03
J20 2
11 1
23 -0.03
J21 2
12 1
24 -0.03
J22 2
13 1
25 -0.03
J23 2
14 1
26 -0.2
J24 2
15 1
27 -0.15
J25 2
16 1
28 -0.1
J26 2
17 1
29 -0.15
J27 2
18 1
30 -0.2
J28 2
14 1
26 -0.02
J29 2
15 1
27 -0.02
J30 2
16 1
28 -0.04
J31 2
17 1
29 -0.04
J32 2
18 1
30 -0.04
J33 2
19 1
26 1
J34 2
20 1
27 1
J35 2
23 1
28 1
J36 2
24 1
29 1
J37 2
25 1
30 1
G0 7
0 -0.06435
1 -0.0548
2 -0.02505
3 -0.0762
4 -0.03815
5 -0.0927
6 -0.031
