check/instances/MINLP/meanvarx.col
x2
x3
x4
x5
x6
x7
x8
x9
x10
x11
x12
x13
x14
x15
x16
x17
x20
x21
x22
b23
b24
b25
b26
b27
b28
b29
b30
b31
b34
b35
b36
